NAME: line_20_4
TYPE: TSP
COMMENT: line_20_4
DIMENSION: 20
EDGE_WEIGHT_TYPE: EUC_2D
NODE_COORD_SECTION
1 0.0 28.0
2 0.0 150.0
3 0.0 21.0
4 0.0 102.0
5 0.0 174.0
6 0.0 97.0
7 0.0 10.0
8 0.0 26.0
9 0.0 91.0
10 0.0 110.0
11 0.0 79.0
12 0.0 107.0
13 0.0 46.0
14 0.0 100.0
15 0.0 2.0
16 0.0 71.0
17 0.0 83.0
18 0.0 94.0
19 0.0 154.0
20 0.0 171.0
